&CONTROL
  calculation = 'scf',
  prefix = 'srruo3',
  outdir = './tmp/',
  pseudo_dir = './pseudo/',
  verbosity = 'high'
/

&SYSTEM
  ibrav = 0,
  nat = 21,
  ntyp = 3,
  ecutwfc = 60,
  ecutrho = 480,
  occupations = 'smearing',
  smearing = 'mp',
  degauss = 0.02
  nbnd = 100
/

&ELECTRONS
  conv_thr = 1.0d-8,
  mixing_beta = 0.7
/

CELL_PARAMETERS {alat}
  1.000000000000000   0.000000000000000   0.000000000000000
  0.000000000000000   1.408878672509159   0.000000000000000
  0.000000000000000   0.000000000000000   0.993463113282092

ATOMIC_SPECIES
  Sr  87.62000  Sr.pbe-n-van.UPF
  O   15.99900  O.pbe-n-kjpaw_psl.1.0.0.UPF
  Ru  101.07000 Ru.pbe-spn-kjpaw_psl.1.0.0.UPF

ATOMIC_POSITIONS {crystal}
  Ru   0.000000   0.000000   0.000000
  Ru   0.500000   0.500000   0.500000
  Ru   0.500000   0.000000   0.500000
  Ru   0.000000   0.500000   0.000000
  Sr   0.498500   0.250000   0.998100
  Sr   0.001500   0.750000   0.498100
  Sr   0.501500   0.750000   0.001900
  Sr   0.998500   0.250000   0.501900
  O    0.242600   0.028000   0.265000
  O    0.257400   0.528000   0.765000
  O    0.257400   0.972000   0.765000
  O    0.757400   0.528000   0.735000
  O    0.757400   0.972000   0.735000
  O    0.742600   0.472000   0.235000
  O    0.742600   0.028000   0.235000
  O    0.242600   0.472000   0.265000
  O    0.582800   0.250000   0.530100
  O    0.917200   0.750000   0.030100
  O    0.417200   0.750000   0.469900
  O    0.082800   0.250000   0.969900
  O    0.582800   0.750000   0.030100

K_POINTS {automatic}
6 6 6 0 0 0
